100 10
691 521
245 309
753 732
519 704
746 948
443 599
383 224
437 662
465 864
548 270
533 87
612 617
419 751
741 480
851 656
831 585
311 212
412 148
838 738
530 787
684 321
814 792
699 369
638 322
341 200
595 826
514 646
664 484
855 753
559 369
493 121
851 719
829 430
671 274
373 878
290 811
561 631
344 511
669 350
511 338
563 858
543 464
511 114
918 891
767 583
619 588
621 186
275 127
644 737
507 154
603 486
703 896
755 547
535 624
742 523
755 564
555 552
451 674
392 318
416 695
557 446
177 372
654 648
637 544
619 531
549 475
545 902
319 549
623 587
451 333
278 449
502 617
643 741
656 788
587 884
256 843
557 504
236 757
547 646
499 282
720 707
354 553
711 545
479 493
452 355
433 663
555 369
348 531
702 225
178 861
474 516
410 852
347 426
163 320
569 677
610 570
577 620
233 715
292 765
832 690
